CMPL model generation - running

CMPL version: 1.11.0
Authors: Thomas Schleiff, Mike Steglich
Distributed under the GPLv3 

create model instance ...
write model instance ...
CMPL model generation - finished

Solver - running


Welcome to IBM(R) ILOG(R) CPLEX(R) Interactive Optimizer 12.7.1.0
  with Simplex, Mixed Integer & Barrier Optimizers
5725-A06 5725-A29 5724-Y48 5724-Y49 5724-Y54 5724-Y55 5655-Y21
Copyright IBM Corp. 1988, 2017.  All Rights Reserved.

Type 'help' for a list of available commands.
Type 'help' followed by a command name for more
information on commands.

CPLEX> Specified objective sense: MINIMIZE
Selected objective  name:  line[1]
Selected RHS        name:  RHS
Selected bound      name:  BOUND
Problem '/tmp/cmpl.T24469.mps' read.
Read time = 0.05 sec. (8.18 ticks)
CPLEX> CPXPARAM_Read_APIEncoding                        "UTF-8"
Tried aggregator 3 times.
MIP Presolve eliminated 19121 rows and 30480 columns.
MIP Presolve modified 340 coefficients.
Aggregator did 701 substitutions.
Reduced MIP has 2533 rows, 3412 columns, and 9936 nonzeros.
Reduced MIP has 3244 binaries, 0 generals, 0 SOSs, and 0 indicators.
Presolve time = 0.05 sec. (40.71 ticks)
Found incumbent of value 1139.377080 after 0.09 sec. (65.44 ticks)
Probing fixed 16 vars, tightened 0 bounds.
Probing time = 0.01 sec. (4.49 ticks)
Tried aggregator 1 time.
MIP Presolve eliminated 0 rows and 16 columns.
MIP Presolve modified 83 coefficients.
Reduced MIP has 2533 rows, 3396 columns, and 9904 nonzeros.
Reduced MIP has 3396 binaries, 0 generals, 0 SOSs, and 0 indicators.
Presolve time = 0.01 sec. (8.43 ticks)
Probing time = 0.01 sec. (2.70 ticks)
Clique table members: 6093.
MIP emphasis: balance optimality and feasibility.
MIP search method: dynamic search.
Parallel mode: none, using 1 thread.
Root relaxation solution time = 0.01 sec. (6.52 ticks)

        Nodes                                         Cuts/
   Node  Left     Objective  IInf  Best Integer    Best Bound    ItCnt     Gap

*     0+    0                         1139.3771      -22.1254           101.94%
      0     0      352.7367     2     1139.3771      352.7367      292   69.04%
*     0+    0                          352.7635      352.7367             0.01%

Root node processing (before b&c):
  Real time             =    0.15 sec. (99.43 ticks)
Sequential b&c:
  Real time             =    0.00 sec. (0.00 ticks)
                          ------------
Total (root+branch&cut) =    0.15 sec. (99.43 ticks)

Solution pool: 2 solutions saved.

MIP - Integer optimal, tolerance (0.0001/1e-06):  Objective =  3.5276353500e+02
Current MIP best bound =  3.5273668600e+02 (gap = 0.026849, 0.01%)
Solution time =    0.15 sec.  Iterations = 292  Nodes = 0 (1)
Deterministic time = 99.53 ticks  (680.53 ticks/sec)

CPLEX> Incumbent solution written to file '/tmp/cmpl.T24469.gsol'.
CPLEX> 
CMPL: Time used for model generation: 0 seconds
CMPL: Time used for solving the model: 1 seconds


Solution written to ASCII file: results/output_generated_conf_0.7/2016-04-04-4/fair-nonlinear.sol

Solver - finished
